PRODUCT = {F, L, Z, J};
profit = [6.0, 10.0, 8.0, 40.0];

RESOURCE = {MONEY, Fmax, Lmax, Zmax, Jmax};
capacity = [20000, 1000, 400, 500, 150];

consumption = [| 13.0, 1.0, 0.0, 0.0, 0.0
               | 21.0, 0.0, 1.0, 0.0, 0.0
               | 17.0, 0.0, 0.0, 1.0, 0.0
               | 100.0, 0.0, 0.0, 0.0, 1.0 |];

